580915
580915
580915
580915
578759
564324
564324
564324
564324
557285
557285
557285
546427
538549
538549
538549
538549
538549
537782
535547
535547
520718
520718
520718
510835
510835
510835
510835
504378
500757
500757
500757
500757
499156
499156
496413
496413
496413
494039
488794
488794
484197
484197
484197
484197
482426
482426
476547
476547
476547
471042
471042
461357
461357
450120
450120
450120
450120
442396
442396
442396
442396
442396
442396
442396
442396
442396
442396
442396
442396
442396
442137
442137
441815
441815
441815
441815
436393
436393
436393
428082
428082
428082
428082
428082
428082
423070
423070
423070
423070
423070
423070
417887
417887
417426
417426
417426
412397
412397
403947
